50
    1   346   345
    2   237   193
    3   425   467
    4   119   100
    5   160   141
    6   245   291
    7   207   170
    8   315   281
    9     1    46
   10   109    59
   11   359   357
   12    78   100
   13   468   493
   14   181   161
   15   176   206
   16   250   254
   17   356   310
   18   389   425
   19   245   258
   20   407   407
   21   101   114
   22   354   313
   23   405   401
   24   542   496
   25   311   350
   26   161   121
   27   267   295
   28   130   117
   29   469   439
   30   149   104
   31   329   295
   32   182   141
   33     1    25
   34   389   414
   35    42    45
   36   284   262
   37   259   249
   38    13    18
   39   170   137
   40   438   476
   41   375   416
   42    24    23
   43   224   247
   44   215   259
   45   432   416
   46   183   144
   47   354   395
   48   334   379
   49   235   216
   50   154   157
8352
